NAME : S-U-4-12.2734.tour
COMMENT : Length = 2734
COMMENT : Found by LKH [Keld Helsgaun] Thu May 17 23:18:22 2018
TYPE : TOUR
DIMENSION : 31
TOUR_SECTION
1
19
13
2
3
6
28
11
8
14
10
25
29
24
23
18
27
26
15
9
16
31
12
5
7
4
20
22
30
21
17
-1
EOF
